&inputpp
  prefix="H2O"
  outdir="./tmp"
  filplot="psi2"
  plot_num=7
  kpoint=1
  kband(1)=1
  kband(2)=8
  lsign=.true.
/
&plot
  iflag=3
  output_format=6
  fileout=".cube"
/
