&bands
    prefix = "graphene",
    outdir='./tmp'
    filband='graphene.bandspp.dat'
    lsym=.true.
 /
