&CONTROL
    calculation       = 'bands'
    restart_mode      = 'from_scratch'
    prefix            = 'graphene'
    tstress           = .true.
    tprnfor           = .true.
    pseudo_dir        = '../../Pseudo'
    outdir            = './tmp'
    verbosity         = 'high'
!   disk_io = 'minimal'
    wf_collect        = .true.
/
&SYSTEM
                       ibrav = 4,
                   celldm(1) = 4.635,
                   celldm(3) = 6,
                         nat = 2,
                        ntyp = 1,
                     ecutwfc = 40 ,
                        nbnd = 16,
                 occupations = 'smearing' ,
                     degauss = 0.03 ,
                    smearing = 'gaussian' ,
/
&ELECTRONS
                 mixing_beta = 0.7 ,
/
ATOMIC_SPECIES
    C   12.01100  C.pz-vbc.UPF 
ATOMIC_POSITIONS {crystal}
    C      0.000000000    0.000000000    0.000000000    
    C      0.333333333    0.666666667    0.000000000    
K_POINTS {crystal_b}
4
   0.0000000000     0.0000000000     0.0000000000 16 
   0.5000000000     0.0000000000     0.0000000000 16
   0.3333333333     0.3333333333     0.0000000000 16
   0.0000000000     0.0000000000     0.0000000000 1
