&CONTROL
  calculation = "relax",
  pseudo_dir  = "../../Pseudo",
  prefix      = "Al"
  outdir      = "./tmp",
  restart_mode = 'restart'
  wf_collect  = .true.
/
&SYSTEM
  nosym       = .false.  ! danger!
  ibrav       = 0,
  A           = 2.8546 
  nat         = 37,
  ntyp        = 2,
  ecutwfc     = 40.D0,
  ecutrho     = 320.D0,
  occupations = "smearing",
  smearing    = "marzari-vanderbilt",
  degauss     = 0.05D0,
/
&ELECTRONS
  conv_thr    = 1.D-7,
  mixing_beta = 0.5D0,
  mixing_mode = 'local-TF' ,
  startingpot = 'file'
  startingwfc = 'atomic'
/
&IONS
  bfgs_ndim         = 3,
/
CELL_PARAMETERS {alat}
 3.000000   0.000000   0.000000 
 0.000000   3.000000   0.000000 
 0.000000   0.000000   8.000000 
ATOMIC_SPECIES
Al  1.0  Al.pbe-n-kjpaw_psl.1.0.0.UPF
O   1.0  O.pbe-n-kjpaw_psl.0.1.UPF
ATOMIC_POSITIONS (alat)
Al            0.0000000000        0.0000000000        0.0000000000    0   0   0
Al            0.0000000000        0.9999999955        0.0000000000    0   0   0
Al            0.0000000000        1.9999999913        0.0000000000    0   0   0
Al            0.9999999955        0.0000000000        0.0000000000    0   0   0
Al            0.9999999955        0.9999999955        0.0000000000    0   0   0
Al            0.9999999955        1.9999999913        0.0000000000    0   0   0
Al            1.9999999913        0.0000000000        0.0000000000    0   0   0
Al            1.9999999913        0.9999999955        0.0000000000    0   0   0
Al            1.9999999913        1.9999999913        0.0000000000    0   0   0
Al            0.4999999978        0.4999999978        0.7071067659    0   0   0
Al            0.4999999978        1.4999999935        0.7071067659    0   0   0
Al            0.4999999978        2.4999999890        0.7071067659    0   0   0
Al            1.4999999935        0.4999999978        0.7071067659    0   0   0
Al            1.4999999935        1.4999999935        0.7071067659    0   0   0
Al            1.4999999935        2.4999999890        0.7071067659    0   0   0
Al            2.4999999890        0.4999999978        0.7071067659    0   0   0
Al            2.4999999890        1.4999999935        0.7071067659    0   0   0
Al            2.4999999890        2.4999999890        0.7071067659    0   0   0
Al   0.0000000   0.0000000   1.4307627  
Al   0.0000000   1.0000000   1.4307591  
Al   0.0000000   2.0000000   1.4307591  
Al   1.0000000   0.0000000   1.4307591  
Al   1.0000000   1.0000000   1.4307582  
Al   1.0000000   2.0000000   1.4307582  
Al   2.0000000   0.0000000   1.4307591  
Al   2.0000000   1.0000000   1.4307582  
Al   2.0000000   2.0000000   1.4307582  
Al   0.5000000   0.5000000   2.1566262  
Al   0.5000000   1.5000000   2.1566250  
Al   0.5000000   2.5000000   2.1566262  
Al   1.5000000   0.5000000   2.1566250  
Al   1.5000000   1.5000000   2.1566273  
Al   1.5000000   2.5000000   2.1566250  
Al   2.5000000   0.5000000   2.1566262  
Al   2.5000000   1.5000000   2.1566250  
Al   2.5000000   2.5000000   2.1566262  
O    1.5000000   1.5000000   2.7600000  0 0 1
K_POINTS {automatic}
8 8 1 1 1 0

