&CONTROL
  calculation = "relax",
  pseudo_dir  = "../../Pseudo",
  prefix      = "Al"
  outdir      = "./tmp",
  restart_mode = 'restart'
  wf_collect  = .true.
/
&SYSTEM
  nosym       = .false.  ! danger!
  ibrav       = 0,
  A           = 2.8546 
  nat         = 37,
  ntyp        = 2,
  ecutwfc     = 40.D0,
  ecutrho     = 320.D0,
  occupations = "smearing",
  smearing    = "marzari-vanderbilt",
  degauss     = 0.05D0,
/
&ELECTRONS
  conv_thr    = 1.D-7,
  mixing_beta = 0.5D0,
  mixing_mode = 'local-TF' ,
  startingpot = 'file'
  startingwfc = 'atomic'
/
&IONS
  bfgs_ndim         = 3,
/
CELL_PARAMETERS {alat}
 3.000000   0.000000   0.000000 
 0.000000   3.000000   0.000000 
 0.000000   0.000000   8.000000 
ATOMIC_SPECIES
Al  1.0  Al.pbe-n-kjpaw_psl.1.0.0.UPF
O   1.0  O.pbe-n-kjpaw_psl.0.1.UPF
ATOMIC_POSITIONS (alat)
Al            0.0000000000        0.0000000000        0.0000000000    0   0   0
Al            0.0000000000        0.9999999955        0.0000000000    0   0   0
Al            0.0000000000        1.9999999913        0.0000000000    0   0   0
Al            0.9999999955        0.0000000000        0.0000000000    0   0   0
Al            0.9999999955        0.9999999955        0.0000000000    0   0   0
Al            0.9999999955        1.9999999913        0.0000000000    0   0   0
Al            1.9999999913        0.0000000000        0.0000000000    0   0   0
Al            1.9999999913        0.9999999955        0.0000000000    0   0   0
Al            1.9999999913        1.9999999913        0.0000000000    0   0   0
Al            0.4999999978        0.4999999978        0.7071067659    0   0   0
Al            0.4999999978        1.4999999935        0.7071067659    0   0   0
Al            0.4999999978        2.4999999890        0.7071067659    0   0   0
Al            1.4999999935        0.4999999978        0.7071067659    0   0   0
Al            1.4999999935        1.4999999935        0.7071067659    0   0   0
Al            1.4999999935        2.4999999890        0.7071067659    0   0   0
Al            2.4999999890        0.4999999978        0.7071067659    0   0   0
Al            2.4999999890        1.4999999935        0.7071067659    0   0   0
Al            2.4999999890        2.4999999890        0.7071067659    0   0   0
Al            0.0000000000        0.0000000000        1.4298894096
Al            0.0000000000        1.0004974425        1.4302354196
Al            0.0000000000        1.9995025443        1.4302354196
Al            1.0004974425        0.0000000000        1.4302354196
Al            0.9917900269        0.9917900269        1.4244906226
Al            0.9917900269        2.0082099599        1.4244906226
Al            1.9995025443        0.0000000000        1.4302354196
Al            2.0082099599        0.9917900269        1.4244906226
Al            2.0082099599        2.0082099599        1.4244906226
Al            0.5014778413        0.5014778413        2.1564207969
Al            0.4969169916        1.4999999935        2.1715206069
Al            0.5014778413        2.4985221455        2.1564207969
Al            1.4999999935        0.4969169916        2.1715206069
Al            1.4999999935        1.4999999935        2.0557243723
Al            1.4999999935        2.5030829952        2.1715206069
Al            2.4985221455        0.5014778413        2.1564207969
Al            2.5030829952        1.4999999935        2.1715206069
Al            2.4985221455        2.4985221455        2.1564207969
O             1.4999999970        1.4999999970        2.6436309758    0   0   1
K_POINTS {automatic}
8 8 1 1 1 0

