&control
    calculation = 'relax'
    prefix = 'CNT'
    outdir = './tmp/'
    pseudo_dir = '../../Pseudo'
    verbosity = 'high'
/
&system
    ibrav = 6
    A = 12.0
    C = 4.19
    nat = 16
    ntyp = 1
    ecutwfc = 20
    nbnd = 34
    occupations = 'fixed'
/
&electrons
    conv_thr = 1.0d-8
    mixing_beta = 0.7
/
&ions
/
ATOMIC_SPECIES
C  12.0107  C.upf 

ATOMIC_POSITIONS (angstrom)
C             1.6924701282        0.0000000000       -0.7147497644
C             1.6924653459        0.0000000000       -2.0938246617
C             1.1967664015        1.1967664015        1.3811099647
C             1.1967694063        1.1967694063        0.0020551167
C             0.0000000000        1.6924701282       -0.7147497644
C             0.0000000000        1.6924653459       -2.0938246617
C            -1.1967664015        1.1967664015        1.3811099647
C            -1.1967694063        1.1967694063        0.0020551167
C            -1.6924701282       -0.0000000000       -0.7147497644
C            -1.6924653459        0.0000000000       -2.0938246617
C            -1.1967664015       -1.1967664015        1.3811099647
C            -1.1967694063       -1.1967694063        0.0020551167
C             0.0000000000       -1.6924701282       -0.7147497644
C            -0.0000000000       -1.6924653459       -2.0938246617
C             1.1967664015       -1.1967664015        1.3811099647
C             1.1967694063       -1.1967694063        0.0020551167

K_POINTS automatic
1 1 12 0 0 0
