&CONTROL
  calculation = "scf",
  pseudo_dir  = "../../../Pseudo",
  prefix      = "Al"
  outdir      = "./tmp",
! restart_mode = 'restart'
  wf_collect  = .true.
/
&SYSTEM
  nosym       = .false.  ! danger!
  ibrav       = 0,
  A           = 2.8546 
  nat         = 36,
  ntyp        = 1,
  ecutwfc     = 40.D0,
  ecutrho     = 320.D0,
  occupations = "smearing",
  smearing    = "marzari-vanderbilt",
  degauss     = 0.05D0,
/
&ELECTRONS
  conv_thr    = 1.D-7,
  mixing_beta = 0.5D0,
  mixing_mode = 'local-TF' ,
! startingpot = 'file'
! startingwfc = 'atomic'
/
&IONS
  bfgs_ndim         = 3,
/
CELL_PARAMETERS {alat}
 3.000000   0.000000   0.000000 
 0.000000   3.000000   0.000000 
 0.000000   0.000000   8.000000 
ATOMIC_SPECIES
Al  1.0  Al.pbe-n-kjpaw_psl.1.0.0.UPF
ATOMIC_POSITIONS (alat)
Al               0.0000000000        0.0000000000        0.0000000000    0   0   0
Al               0.0000000000        0.9999999970        0.0000000000    0   0   0
Al               0.0000000000        1.9999999944        0.0000000000    0   0   0
Al               0.9999999970        0.0000000000        0.0000000000    0   0   0
Al               0.9999999970        0.9999999970        0.0000000000    0   0   0
Al               0.9999999970        1.9999999944        0.0000000000    0   0   0
Al               1.9999999944        0.0000000000        0.0000000000    0   0   0
Al               1.9999999944        0.9999999970        0.0000000000    0   0   0
Al               1.9999999944        1.9999999944        0.0000000000    0   0   0
Al               0.4999999986        0.4999999986        0.7071067670    0   0   0
Al               0.4999999986        1.4999999958        0.7071067670    0   0   0
Al               0.4999999986        2.4999999929        0.7071067670    0   0   0
Al               1.4999999958        0.4999999986        0.7071067670    0   0   0
Al               1.4999999958        1.4999999958        0.7071067670    0   0   0
Al               1.4999999958        2.4999999929        0.7071067670    0   0   0
Al               2.4999999929        0.4999999986        0.7071067670    0   0   0
Al               2.4999999929        1.4999999958        0.7071067670    0   0   0
Al               2.4999999929        2.4999999929        0.7071067670    0   0   0
Al               0.0000000000        0.0000000000        1.4291457179
Al               0.0000000000        1.0007151822        1.4309395020
Al               0.0000000000        1.9992848093        1.4309395020
Al               1.0007151822        0.0000000000        1.4309395020
Al               0.9916775500        0.9916775500        1.4249834437
Al               0.9916775500        2.0083224414        1.4249834437
Al               1.9992848093        0.0000000000        1.4309395020
Al               2.0083224414        0.9916775500        1.4249834437
Al               2.0083224414        2.0083224414        1.4249834437
Al               0.5012291195        0.5012291195        2.1565914875
Al               0.4971216339        1.4999999958        2.1725092986
Al               0.5012291195        2.4987708720        2.1565914875
Al               1.4999999958        0.4971216339        2.1725092986
Al               1.4999999958        1.4999999958        2.0556244476
Al               1.4999999958        2.5028783576        2.1725092986
Al               2.4987708720        0.5012291195        2.1565914875
Al               2.5028783576        1.4999999958        2.1725092986
Al               2.4987708720        2.4987708720        2.1565914875
K_POINTS {automatic}
6 6 1 1 1 0

