&INPUTPP
       prefix = 'Al',
       outdir = './tmp',
      filplot = 'Al001_charge.dat',
     plot_num = 0
/
