&CONTROL
  calculation  = "scf",
  prefix       = "O",
  pseudo_dir   = "../../../Pseudo",
  outdir       = "./tmp",
  verbosity    = 'high'
/
&SYSTEM
  ibrav     = 0,
  nat       = 1,
  ntyp      = 1,
  nbnd      = 6,
  ecutwfc   = 60
  nspin=2
  occupations = 'from_input'
/
&ELECTRONS
  conv_thr    = 1.D-7,
  mixing_beta = 0.7D0,
/
CELL_PARAMETERS {angstrom}
10.0  0.0  0.0
 0.0 10.0  0.0
 0.0  0.0 10.0
ATOMIC_SPECIES
O  1.00  O.pw-mt_fhi.UPF
ATOMIC_POSITIONS {angstrom}
O  2.000  2.0  2.0   
K_POINTS {Gamma}
OCCUPATIONS
1.0 1.0 1.0 1.0 0.0 0.0
1.0 1.0 0.0 0.0 0.0 0.0
