&INPUTPP
prefix       = "graphene",
outdir       = "./tmp",
plot_num     = 7
filplot      = "psi2.plot"
kpoint       = 1
kband        = 4
lsign        =.false.
/
&PLOT
nfile     = 1
filepp(1) ="psi2.plot"
iflag     = 3
output_format = 5
fileout = "psi2_k1_b4.xsf"
/
