&CONTROL
  calculation  = "scf",
  prefix       = "C",
  pseudo_dir   = "../../../Pseudo",
  outdir       = "./tmp",
  verbosity    = 'high'
/
&SYSTEM
  ibrav     = 0,
  nat       = 1,
  ntyp      = 1,
  nbnd      = 6,
  ecutwfc   = 60
  nspin=2
  tot_magnetization=2
/
&ELECTRONS
  conv_thr    = 1.D-7,
  mixing_beta = 0.7D0,
/
CELL_PARAMETERS {angstrom}
10.0  0.0  0.0
 0.0 10.0  0.0
 0.0  0.0 10.0
ATOMIC_SPECIES
C  1.00  C.pw-mt_fhi.UPF
ATOMIC_POSITIONS {angstrom}
C  3.119  2.0  2.0   
K_POINTS {Gamma}
