&CONTROL
  calculation  = "scf",
  prefix       = "CO",
  pseudo_dir   = "../../../Pseudo",
  outdir       = "./tmp",
  verbosity    = 'high'
  tstress = .true.
  tprnfor = .true.
/
&SYSTEM
  ibrav     = 0,
  nat       = 2,
  ntyp      = 2,
  nbnd      = 6,
  ecutwfc   = 60
  nspin = 2
  occupations = 'smearing'
  degauss = 0.001
  starting_magnetization = 0.1
/
&ELECTRONS
  conv_thr    = 1.D-7,
  mixing_beta = 0.7D0,
/
CELL_PARAMETERS {angstrom}
10.0  0.0  0.0
 0.0 10.0  0.0
 0.0  0.0 10.0
ATOMIC_SPECIES
O  1.00  O.pw-mt_fhi.UPF
C  1.00  C.pw-mt_fhi.UPF
ATOMIC_POSITIONS {angstrom}
C  3.119  2.0  2.0   
O  2.000  2.0  2.0   
K_POINTS {Gamma}
