&CONTROL
  calculation = "relax",
  pseudo_dir  = "../../Pseudo",
  prefix      = "Al"
  outdir      = "./tmp",
  restart_mode = 'restart'
  wf_collect  = .true.
/
&SYSTEM
  nosym       = .false.  ! danger!
  ibrav       = 0,
  A           = 2.8546 
  nat         = 37,
  ntyp        = 2,
  ecutwfc     = 40.D0,
  ecutrho     = 320.D0,
  occupations = "smearing",
  smearing    = "marzari-vanderbilt",
  degauss     = 0.05D0,
/
&ELECTRONS
  conv_thr    = 1.D-7,
  mixing_beta = 0.5D0,
  mixing_mode = 'local-TF' ,
  startingpot = "file"
  startingwfc = 'atomic'
/
&IONS
  bfgs_ndim         = 3,
/
CELL_PARAMETERS {alat}
 3.000000   0.000000   0.000000 
 0.000000   3.000000   0.000000 
 0.000000   0.000000   8.000000 
ATOMIC_SPECIES
Al  1.0  Al.pbe-n-kjpaw_psl.1.0.0.UPF
O   1.0  O.pbe-n-kjpaw_psl.0.1.UPF
ATOMIC_POSITIONS (alat)
Al               0.0000000000        0.0000000000        0.0000000000    0   0   0
Al               0.0000000000        0.9999999969        0.0000000000    0   0   0
Al               0.0000000000        1.9999999938        0.0000000000    0   0   0
Al               0.9999999969        0.0000000000        0.0000000000    0   0   0
Al               0.9999999969        0.9999999969        0.0000000000    0   0   0
Al               0.9999999969        1.9999999938        0.0000000000    0   0   0
Al               1.9999999938        0.0000000000        0.0000000000    0   0   0
Al               1.9999999938        0.9999999969        0.0000000000    0   0   0
Al               1.9999999938        1.9999999938        0.0000000000    0   0   0
Al               0.4999999984        0.4999999984        0.7071067668    0   0   0
Al               0.4999999984        1.4999999955        0.7071067668    0   0   0
Al               0.4999999984        2.4999999922        0.7071067668    0   0   0
Al               1.4999999955        0.4999999984        0.7071067668    0   0   0
Al               1.4999999955        1.4999999955        0.7071067668    0   0   0
Al               1.4999999955        2.4999999922        0.7071067668    0   0   0
Al               2.4999999922        0.4999999984        0.7071067668    0   0   0
Al               2.4999999922        1.4999999955        0.7071067668    0   0   0
Al               2.4999999922        2.4999999922        0.7071067668    0   0   0
Al               0.0000994593       -0.0000994593        1.4254817586
Al              -0.0068893666        0.9999999969        1.4529023311
Al               0.0000994593        2.0000994532        1.4254781629
Al               0.9999005376       -0.0000994593        1.4254781629
Al               1.0068893636        0.9999999969        1.4529013724
Al               0.9999005376        2.0000994532        1.4254772042
Al               1.9999999938        0.0068893666        1.4529023311
Al               1.9999999938        0.9999999969        1.3851891229
Al               1.9999999938        1.9931106272        1.4529013724
Al               0.4999999984        0.4983177433        2.1662201593
Al               0.4999999984        1.5016822506        2.1662189713
Al               0.4999999984        2.4999999922        2.1512226071
Al               1.5145993730        0.5145993761        2.1644756918
Al               1.5145993730        1.4854006178        2.1644779493
Al               1.4983177402        2.4999999922        2.1662189713
Al               2.4854006147        0.5145993761        2.1644768798
Al               2.4854006147        1.4854006178        2.1644756918
Al               2.5016822475        2.4999999922        2.1662201593
O                1.9999999985        0.9999999993        2.4126302520    0   0   1
K_POINTS {automatic}
6 6 1 1 1 0
