&CONTROL
  calculation  = "scf",			
  prefix       = "Si",			
  pseudo_dir   = "../../Pseudo",	
  outdir       = "./tmp",		
  verbosity    = "high",		
/
&SYSTEM
  ibrav     = 0,			
! A         = 5.40			
  nat       = 2,			
  ntyp      = 1,			
  ecutwfc   = 20, 			
/
&ELECTRONS
/
CELL_PARAMETERS {bohr}
  -5.10225  0.000000  5.10225 
   0.000000 5.10225   5.10225   
  -5.10225  5.10225   0.000000 

ATOMIC_SPECIES
 Si  28.086  Si.pz-vbc.UPF
ATOMIC_POSITIONS {crystal}
 Si 0.00 0.00 0.00
 Si 0.25 0.25 0.25
K_POINTS {automatic}
4 4 4 1 1 1
