&INPUTPP
       prefix = 'Al',
       outdir = './tmp',
      filplot = 'O_charge.dat',
     plot_num = 0
/
&plot
  iflag=3
  output_format=5
  fileout="charge0.xsf"
/



