&INPUTPP
       prefix = 'Al',
       outdir = './tmp',
      filplot = 'O_charge.dat',
     plot_num = 0
/
