 &dos
   outdir='./tmp'
   prefix='Si'
   bz_sum='tetrahedra'
   fildos='si.dos-tetra.dat',
   Emin=-10.0, Emax=20.0, DeltaE=0.1
 /

