&inputpp
  prefix="H2O"
  outdir="./tmp"
  filplot="charge.dat"
  plot_num=0
/
&plot
  iflag=3
  output_format=5
  fileout="charge_plot3D.xsf"
/
