&inputpp
  calculation = "eps"
  prefix       = "Si",
  outdir       = "./tmp_epsilon",
/
&energy_grid
  smeartype = "gauss"
  intersmear = 0.1
  wmin =  0.05
  wmax = 20.05
  nw = 201
/
