&CONTROL
  calculation  = "nscf",
  prefix       = "Si",
  pseudo_dir   = "../../Pseudo",
  outdir       = "./tmp_epsilon",
  restart_mode = "from_scratch"
  tprnfor = .true.
  wf_collect=.true.
  verbosity='high'
/
&SYSTEM
  nosym=.true.
  noinv=.true.
  ibrav     = 2,
  celldm(1) = 10.21,
  nat       = 2,
  ntyp      = 1,
  ecutwfc   = 20 
  nbnd      = 5
/
&ELECTRONS
  conv_thr    = 1.D-8,
  mixing_beta = 0.7D0	,
/
ATOMIC_SPECIES
 Si  28.086  Si.pz-vbc.UPF
ATOMIC_POSITIONS {alat}
 Si 0.00 0.00 0.00
 Si 0.25 0.25 0.25
K_POINTS {automatic}
8 8 8 0 0 0
