&inputpp
  prefix       = "Si",
  outdir       = "./tmp_pw2gw",
    Emin=0.0
    Emax=20.0
    DeltaE=0.1
/
