&INPUTPP
prefix       = "Al",
outdir       = "./tmp",
plot_num     = 21
filplot      = "charge21.dat"
/
&plot
  iflag=3
  output_format=6
  fileout="charge21.cube"
/


