&CONTROL
    calculation       = 'nscf'
  prefix       = "graphene",
  pseudo_dir   = "/Users/cdhogan/Documents/Teaching/DFT-basics-git-commitssh/Pseudo",
  outdir       = "./epsilon_script_k72_unshifted",
    verbosity         = 'high'
    wf_collect        = .true.
/
&SYSTEM
  nosym=.true.
  noinv=.true.
                       ibrav = 4,
                   celldm(1) = 4.635,
                   celldm(3) = 6,
                         nat = 2,
                        ntyp = 1,
                     ecutwfc = 40 ,
  nbnd      = 16
                 occupations = 'smearing' ,
                     degauss = 0.03 ,
                    smearing = 'gaussian' ,
/
&ELECTRONS
  diago_full_acc=.true.
  diago_thr_init=1.D-10
                 mixing_beta = 0.7 ,
/
ATOMIC_SPECIES
    C   12.01100  C.pz-vbc.UPF 
ATOMIC_POSITIONS {crystal}
    C      0.000000000    0.000000000    0.000000000    
    C      0.333333333    0.666666667    0.000000000    
K_POINTS {automatic}
72 72 1 0 0 0
