&CONTROL
  calculation = "relax",
  pseudo_dir  = "../../Pseudo",
  prefix      = "Al"
  outdir      = "./tmp",
/
&SYSTEM
  nosym       = .false.
  ibrav       = 0,
  A           = 2.8546 
  nat         = 36,
  ntyp        = 1,
  ecutwfc     = 20.D0,
  ecutrho     = 160.D0,
  occupations = "smearing",
  smearing    = "marzari-vanderbilt",
  degauss     = 0.05D0,
/
&ELECTRONS
  conv_thr    = 1.D-7,
  mixing_beta = 0.5D0,
  mixing_mode = 'local-TF' ,
/
&IONS
  bfgs_ndim         = 3,
/
CELL_PARAMETERS {alat}
 3.000000   0.000000   0.000000 
 0.000000   3.000000   0.000000 
 0.000000   0.000000   8.000000 
ATOMIC_SPECIES
Al  1.0  Al.pbe-n-kjpaw_psl.1.0.0.UPF
ATOMIC_POSITIONS alat
 Al    0.00000000       0.00000000       0.00000000      0 0 0
 Al    0.00000000       1.00000000       0.00000000      0 0 0
 Al    0.00000000       2.00000000       0.00000000      0 0 0
 Al    1.00000000       0.00000000       0.00000000      0 0 0
 Al    1.00000000       1.00000000       0.00000000      0 0 0
 Al    1.00000000       2.00000000       0.00000000      0 0 0
 Al    2.00000000       0.00000000       0.00000000      0 0 0
 Al    2.00000000       1.00000000       0.00000000      0 0 0
 Al    2.00000000       2.00000000       0.00000000      0 0 0
 Al   0.500000000      0.500000000      0.707106769      0 0 0
 Al   0.500000000       1.50000000      0.707106769      0 0 0
 Al   0.500000000       2.50000000      0.707106769      0 0 0
 Al    1.50000000      0.500000000      0.707106769      0 0 0
 Al    1.50000000       1.50000000      0.707106769      0 0 0
 Al    1.50000000       2.50000000      0.707106769      0 0 0
 Al    2.50000000      0.500000000      0.707106769      0 0 0
 Al    2.50000000       1.50000000      0.707106769      0 0 0
 Al    2.50000000       2.50000000      0.707106769      0 0 0
 Al    0.00000000       0.00000000       1.41421354      0 0 1
 Al    0.00000000       1.00000000       1.41421354    0 0 1
 Al    0.00000000       2.00000000       1.41421354    0 0 1
 Al    1.00000000       0.00000000       1.41421354    0 0 1
 Al    1.00000000       1.00000000       1.41421354    0 0 1
 Al    1.00000000       2.00000000       1.41421354    0 0 1
 Al    2.00000000       0.00000000       1.41421354    0 0 1
 Al    2.00000000       1.00000000       1.41421354    0 0 1
 Al    2.00000000       2.00000000       1.41421354    0 0 1
 Al   0.500000000      0.500000000       2.12132025    0 0 1
 Al   0.500000000       1.50000000       2.12132025    0 0 1
 Al   0.500000000       2.50000000       2.12132025    0 0 1
 Al    1.50000000      0.500000000       2.12132025    0 0 1
 Al    1.50000000       1.50000000       2.12132025    0 0 1
 Al    1.50000000       2.50000000       2.12132025    0 0 1
 Al    2.50000000      0.500000000       2.12132025    0 0 1
 Al    2.50000000       1.50000000       2.12132025    0 0 1
 Al    2.50000000       2.50000000       2.12132025    0 0 1
K_POINTS {automatic}
2 2 1 1 1 0

