&CONTROL
  calculation = "relax",
  pseudo_dir  = "../../Pseudo",
  prefix      = "Al"
  outdir      = "./tmp",
/
&SYSTEM
  nosym       = .false.
  ibrav       = 0,
  A           = 2.8546 
! celldm(1)   = 5.3033D0,
! celldm(3)   = 8.D0,
  nat         = 36,
  ntyp        = 1,
  ecutwfc     = 20.D0,
  ecutrho     = 200.D0,
  occupations = "smearing",
  smearing    = "marzari-vanderbilt",
  degauss     = 0.05D0,
/
&ELECTRONS
  conv_thr    = 1.D-7,
  mixing_beta = 0.5D0,
  mixing_mode = 'local-TF' ,
/
&IONS
  bfgs_ndim         = 3,
/
CELL_PARAMETERS {alat}
 3.000000   0.000000   0.000000 
 0.000000   3.000000   0.000000 
 0.000000   0.000000   8.000000 
ATOMIC_SPECIES
Al  1.0  Al.pbe-n-kjpaw_psl.1.0.0.UPF
ATOMIC_POSITIONS (alat)
Al            0.0000000000        0.0000000000        0.0000000000    0   0   0
Al            0.0000000000        0.9999999976        0.0000000000    0   0   0
Al            0.0000000000        1.9999999953        0.0000000000    0   0   0
Al            0.9999999976        0.0000000000        0.0000000000    0   0   0
Al            0.9999999976        0.9999999976        0.0000000000    0   0   0
Al            0.9999999976        1.9999999953        0.0000000000    0   0   0
Al            1.9999999953        0.0000000000        0.0000000000    0   0   0
Al            1.9999999953        0.9999999976        0.0000000000    0   0   0
Al            1.9999999953        1.9999999953        0.0000000000    0   0   0
Al            0.4999999988        0.4999999988        0.7071067673    0   0   0
Al            0.4999999988        1.4999999965        0.7071067673    0   0   0
Al            0.4999999988        2.4999999941        0.7071067673    0   0   0
Al            1.4999999965        0.4999999988        0.7071067673    0   0   0
Al            1.4999999965        1.4999999965        0.7071067673    0   0   0
Al            1.4999999965        2.4999999941        0.7071067673    0   0   0
Al            2.4999999941        0.4999999988        0.7071067673    0   0   0
Al            2.4999999941        1.4999999965        0.7071067673    0   0   0
Al            2.4999999941        2.4999999941        0.7071067673    0   0   0
Al            0.0000000000        0.0000000000        1.4307627046    0   0   1
Al            0.0000000000        0.9999999976        1.4307591089    0   0   1
Al            0.0000000000        1.9999999953        1.4307591089    0   0   1
Al            0.9999999976        0.0000000000        1.4307591089    0   0   1
Al            0.9999999976        0.9999999976        1.4307581502    0   0   1
Al            0.9999999976        1.9999999953        1.4307581502    0   0   1
Al            1.9999999953        0.0000000000        1.4307591089    0   0   1
Al            1.9999999953        0.9999999976        1.4307581502    0   0   1
Al            1.9999999953        1.9999999953        1.4307581502    0   0   1
Al            0.4999999988        0.4999999988        2.1566262357    0   0   1
Al            0.4999999988        1.4999999965        2.1566250477    0   0   1
Al            0.4999999988        2.4999999941        2.1566262357    0   0   1
Al            1.4999999965        0.4999999988        2.1566250477    0   0   1
Al            1.4999999965        1.4999999965        2.1566273052    0   0   1
Al            1.4999999965        2.4999999941        2.1566250477    0   0   1
Al            2.4999999941        0.4999999988        2.1566262357    0   0   1
Al            2.4999999941        1.4999999965        2.1566250477    0   0   1
Al            2.4999999941        2.4999999941        2.1566262357    0   0   1
K_POINTS {automatic}
2 2 1 1 1 0

