&PROJWFC
  prefix       = "graphene",
  outdir       = "./tmp",
  degauss = .0146997
  lsym=.true.
  filproj='graphene.proj'
/
