&CONTROL
  calculation = 'vc-relax'
  outdir = './tmp'
  prefix = 'graphite'
  pseudo_dir = './'
  tprnfor = .true.
  tstress = .true.
  verbosity = 'high'
/
&SYSTEM
! ecutrho = 360
  ecutwfc = 80
  ibrav = 4
  A = 2.46
  C = 6.71
  nat = 4
  nosym = .false.
  ntyp = 1
  occupations = 'fixed'
  degauss = 0.02
/
&ELECTRONS
  conv_thr =   8.0000000000d-10
  electron_maxstep = 80
  mixing_beta =   4.0000000000d-01
/
&IONS
/
&CELL
   press_conv_thr=0.001
!  cell_dofree="z"
   cell_dofree="ibrav"
/
ATOMIC_SPECIES
C      12.0107 C_DOJO_PBE.upf
ATOMIC_POSITIONS crystal
C            0.0000000000       0.0000000000       0.2500000000
C            0.0000000000       0.0000000000       0.7500000000
C            0.3333333300       0.6666666700       0.2500000000
C            0.6666666700       0.3333333300       0.7500000000
K_POINTS automatic
12 12 6 0 0 0
