&CONTROL
  calculation = 'vc-relax'
  outdir = './tmp'
  prefix = 'graphite'
  pseudo_dir = './'
  tprnfor = .true.
  tstress = .true.
  verbosity = 'high'
/
&SYSTEM
  ecutwfc = 80  ! 27,  27,  80
  nr1=54, nr2=54,nr3=160
  ibrav = 4
  A = 2.46
  C = 6.71
  nat = 4
  nosym = .false.
  ntyp = 1
  occupations = 'fixed'
  degauss = 0.02
  input_dft="m06l"
/
&ELECTRONS
  conv_thr =   1e-7
  electron_maxstep = 150
  mixing_beta =   0.01
/
&IONS
/
&CELL
   press_conv_thr=0.001
!  cell_dofree="z"
   cell_dofree="ibrav"
/
ATOMIC_SPECIES
C      12.0107 C_ONCV_PBE-1.2.upf
ATOMIC_POSITIONS crystal
C            0.0000000000       0.0000000000       0.2500000000
C            0.0000000000       0.0000000000       0.7500000000
C            0.3333333300       0.6666666700       0.2500000000
C            0.6666666700       0.3333333300       0.7500000000
K_POINTS automatic
12 12 6 0 0 0
